multiobj/instances/uniform/Ter.6.2.0.80.3.in
6 2
0 774 34 397 940 378 
774 0 654 5 8 425 
34 654 0 177 493 205 
397 5 177 0 420 349 
940 8 493 420 0 958 
378 425 205 349 958 0 
0 714 156 15 51 389 
714 0 954 553 599 988 
156 954 0 295 379 624 
15 553 295 0 407 235 
51 599 379 407 0 941 
389 988 624 235 941 0 
0 735 229 122 8 488 
735 0 952 387 624 999 
229 952 0 184 364 521 
122 387 184 0 474 527 
8 624 364 474 0 816 
488 999 521 527 816 0 
