multiobj/solutions/Ter.6.2.0.80.3.out
1 2
0 2 5 4 1 3 
4188388 4278086 
